param set_len = 22;
param target = 693352;
param values := [0] 121073 [1] 91221 [2] 70120 [3] 58155 [4] 38425 [5] 110669 [6] 96741 [7] 110438 [8] 63852 [9] 102867 [10] 50559 [11] 38530 [12] 51787 [13] 57784 [14] 4341 [15] 68757 [16] 62336 [17] 9867 [18] 21144 [19] 96009 [20] 7163 [21] 102871 ;
